 $CONTRL SCFTYP=RHF RUNTYP=OPTIMIZE COORD=ZMTMPC MAXIT=200 NZVAR=0 $END         
 $SYSTEM TIMLIM=3000 $END                                                       
 $STATPT NSTEP=600 OPTTOL=1.0E-5  $END                                          
 $BASIS  GBASIS=N21 NGAUSS=3 $END                                               
 $SCF DAMP=.TRUE. $END                                                          
 $GUESS  GUESS=HUCKEL $END                                                      
 $DATA                                                                          
WINMOSTAR                                                                       
C1                                                                              
Zr 0          0 0          0 0          0     0     0     0
C  2.540673   1 0          0 0          0     1     0     0
C  1.426043   1 73.19537   1 0          0     2     1     0
C  1.414614   1 107.73166  1 -68.59812  1     3     2     1
C  1.410091   1 108.21224  1 2.61029    1     4     3     2
C  1.408273   1 74.54311   1 -114.6361  1     2     1     3
H  1.066614   1 120.46414  1 122.22146  1     2     1     3
H  1.066973   1 126.0953   1 116.91808  1     3     2     1
H  1.065517   1 125.91346  1 179.97589  1     4     3     2
H  1.066666   1 126.18475  1 178.13979  1     5     4     3
H  1.066598   1 126.2959   1 -113.3718  1     6     2     1
C  2.5556     1 112.60006  1 -74.14616  1     1     2     3
C  1.40828    1 73.36803   1 -21.87048  1    12     1     2
C  1.426054   1 107.91254  1 -66.13655  1    13    12     1
C  1.414622   1 107.73133  1 -1.56362   1    14    13    12
C  1.421286   1 73.70599   1 -137.0220  1    12     1     2
H  1.066598   1 118.40417  1 100.86869  1    12     1     2
H  1.066607   1 126.11041  1 116.6927   1    13    12     1
H  1.066969   1 126.09435  1 -176.0482  1    14    13    12
H  1.065519   1 125.91348  1 179.96985  1    15    14    13
H  1.066672   1 125.83119  1 -113.2584  1    16    12     1
Cl 2.520748   1 130.63792  1 23.74671   1     1     2     3
Cl 2.520746   1 109.53102  1 143.7594   1     1     2     3
 $END
