 $CONTRL SCFTYP=RHF RUNTYP=OPTIMIZE COORD=UNIQUE MAXIT=200 NZVAR=0 $END         
 $SYSTEM TIMLIM=3000 $END                                                       
 $STATPT NSTEP=600 OPTTOL=1.0E-5  $END                                          
 $BASIS  GBASIS=N21 NGAUSS=3 $END                                               
 $SCF DAMP=.TRUE. $END                                                          
 $GUESS  GUESS=HUCKEL $END                                                      
 $DATA                                                                          
WINMOSTAR                                                                       
C1                                                                              
Fe  26.0  -0.001122  -0.000233  -0.000885
C    6.0   1.749181  -1.415370  -0.181717
C    6.0   2.031113  -0.270572  -0.978372
C    6.0   1.061552  -0.188404  -1.994474
C    6.0   0.174450  -1.297714  -1.846953
C    6.0   0.616616  -2.056801  -0.744372
H    1.0   2.344168  -1.781897   0.623262
H    1.0   2.854712   0.394640  -0.843901
H    1.0   1.030397   0.536705  -2.776170
H    1.0  -0.626638  -1.550172  -2.503895
H    1.0   0.183416  -2.970093  -0.401353
C    6.0  -0.821388   2.045035   0.553967
C    6.0  -0.139981   1.508017   1.674411
C    6.0  -0.842164   0.338347   2.081432
C    6.0  -1.919778   0.140364   1.199412
C    6.0  -1.904819   1.198097   0.240463
H    1.0  -0.566991   2.947518   0.043805
H    1.0   0.682551   1.955317   2.184057
H    1.0  -0.608176  -0.265461   2.929649
H    1.0  -2.655202  -0.629213   1.268915
H    1.0  -2.633113   1.363664  -0.520540
 $END
